n = 50;
C = 6561;
w = [133,83,299,417,346,480,268,194,380,310,338,35,373,414,332,29,222,108,57,427,76,440,499,54,235,337,343,388,447,361,175,96,78,79,303,497,179,172,189,431,82,303,317,9,154,416,193,209,354,461];
p = [122,74,265,415,388,517,250,229,361,281,331,75,413,410,379,-19,230,60,55,474,109,422,524,56,242,316,301,389,443,365,169,96,54,38,278,508,202,143,230,427,128,314,275,26,121,391,153,188,390,496];
